SPARKNaCl/why3-cvc5/sparknacl-hashing-sha2_common.adb_290_28_range_check3_1.smt2
;; produced by cvc5.drv ;;
(set-logic ALL)
(set-info :smt-lib-version 2.6)
;;; generated by SMT-LIB2 driver
;;; SMT-LIB2 driver: bit-vectors, common part
;;; SMT-LIB2: integer arithmetic
(define-fun __cdiv ((x Int) (y Int)) Int (ite (>= x 0) (div x y) (- (div (- x) y))))
(define-fun __cmod ((x Int) (y Int)) Int (ite (>= x 0) (mod x y) (- (mod (- x) y))))
;; "mod"
(define-fun mod1 ((x Int) (y Int)) Int
  (ite (<= 0 y) (mod x y) (- (mod (- x) y))))

;; "pow2"
(declare-fun pow2 (Int) Int)

(declare-const two_power_size_minus_one Int)

;; "two_power_size_minus_one_val"
(assert (= two_power_size_minus_one (pow2 (- 8 1))))

;; "min"
(define-fun min ((x Int) (y Int)) Int
  (ite (<= x y) x y))

;; "max"
(define-fun max ((x Int) (y Int)) Int
  (ite (<= x y) y x))

;; "Min_r"
(assert (forall ((x Int) (y Int)) (=> (<= y x) (= (min x y) y))))

;; "Max_l"
(assert (forall ((x Int) (y Int)) (=> (<= y x) (= (max x y) x))))

;; "Min_comm"
(assert (forall ((x Int) (y Int)) (= (min x y) (min y x))))

;; "Max_comm"
(assert (forall ((x Int) (y Int)) (= (max x y) (max y x))))

;; "Min_assoc"
(assert
  (forall ((x Int) (y Int) (z Int)) (= (min (min x y) z) (min x (min y z)))))

;; "Max_assoc"
(assert
  (forall ((x Int) (y Int) (z Int)) (= (max (max x y) z) (max x (max y z)))))

(declare-const two_power_size_minus_one1 Int)

;; "two_power_size_minus_one_val"
(assert (= two_power_size_minus_one1 (pow2 (- 64 1))))

(declare-sort byte 0)

;; "to_rep"
(declare-fun to_rep (byte) (_ BitVec 8))

;; "of_rep"
(declare-fun of_rep ((_ BitVec 8)) byte)

;; "inversion_axiom"
(assert
  (forall ((x byte)) (! (= (of_rep (to_rep x)) x) :pattern ((to_rep x)) )))

;; "range_axiom"
(assert true)

;; "coerce_axiom"
(assert
  (forall ((x (_ BitVec 8)))
    (! (= (to_rep (of_rep x)) x) :pattern ((to_rep (of_rep x))) )))

(declare-sort map1 0)

;; "has_bounds"
(declare-fun has_bounds (map1
  Int
  Int) Bool)

;; "get"
(declare-fun get (map1
  Int) byte)

(declare-const iv map1)

(declare-sort tinteger_32B 0)

;; "tinteger_32B'int"
(declare-fun tinteger_32Bqtint (tinteger_32B) Int)

;; "tinteger_32B'axiom"
(assert
  (forall ((i tinteger_32B))
    (and
      (<= (- 2147483648) (tinteger_32Bqtint i))
      (<= (tinteger_32Bqtint i) 2147483647))))

;; "in_range"
(define-fun in_range ((x Int)) Bool
  (and (<= (- 2147483648) x) (<= x 2147483647)))

;; "to_rep"
(define-fun to_rep1 ((x tinteger_32B)) Int
  (tinteger_32Bqtint x))

;; "of_rep"
(declare-fun of_rep1 (Int) tinteger_32B)

;; "inversion_axiom"
(assert
  (forall ((x tinteger_32B))
    (! (= (of_rep1 (to_rep1 x)) x) :pattern ((to_rep1 x)) )))

;; "range_axiom"
(assert
  (forall ((x tinteger_32B))
    (! (in_range (to_rep1 x)) :pattern ((to_rep1 x)) )))

;; "coerce_axiom"
(assert
  (forall ((x Int))
    (! (=> (in_range x) (= (to_rep1 (of_rep1 x)) x)) :pattern ((to_rep1
                                                                 (of_rep1 x))) )))

;; "in_range"
(define-fun in_range1 ((x Int)) Bool
  (and (<= 0 x) (<= x 2147483647)))

(declare-datatypes ((t 0))
  (((tqtmk (rec__first tinteger_32B)(rec__last tinteger_32B)))))

;; "dynamic_property"
(define-fun dynamic_property ((range_first Int) (range_last Int) (low Int) (high Int)) Bool
  (and
    (in_range low)
    (and
      (in_range high)
      (=> (<= low high) (and (in_range1 low) (in_range1 high))))))

(declare-datatypes ((us_t 0))
  (((us_tqtmk (elts map1)(rt t)))))

;; "first"
(define-fun first ((a us_t)) Int
  (to_rep1 (rec__first (rt a))))

;; "last"
(define-fun last ((a us_t)) Int
  (to_rep1 (rec__last (rt a))))

;; "length"
(define-fun length ((a us_t)) Int
  (ite (<= (first a) (last a)) (+ (- (last a) (first a)) 1) 0))

;; "well_formed"
(define-fun well_formed ((a us_t)) Bool
  (has_bounds
    (elts a)
    (to_rep1 (rec__first (rt a)))
    (to_rep1 (rec__last (rt a)))))

(declare-const m us_t)

;; "in_range"
(define-fun in_range2 ((x Int)) Bool
  (and (<= (- 2147483648) x) (<= x 2147483647)))

;; "dynamic_invariant"
(define-fun dynamic_invariant ((temp___expr_329 us_t) (temp___is_init_325 Bool) (temp___skip_constant_326 Bool) (temp___do_toplevel_327 Bool) (temp___do_typ_inv_328 Bool)) Bool
  (and
    (=>
      (not (= temp___skip_constant_326 true))
      (dynamic_property
        0
        2147483647
        (first temp___expr_329)
        (last temp___expr_329)))
    (well_formed temp___expr_329)))

;; "in_range"
(define-fun in_range3 ((x Int)) Bool
  (and (<= (- 9223372036854775808) x) (<= x 9223372036854775807)))

;; "in_range"
(define-fun in_range4 ((x Int)) Bool
  (and (<= 0 x) (<= x 127)))

;; "temp_____aggregate_def_729"
(declare-fun temp_____aggregate_def_729 ((_ BitVec 8)) map1)

;; Goal "def'vc"
;; File "sparknacl-hashing-sha2_common.ads", line 26, characters 0-0
(assert
  (not
  (forall ((output map1) (x map1) (b Int) (final_block_first Int))
    (=>
      (has_bounds output 0 63)
      (=>
        (has_bounds iv 0 63)
        (=>
          (dynamic_invariant m true false true true)
          (forall ((h map1))
            (=>
              (= h iv)
              (=>
                (has_bounds h 0 63)
                (=>
                  (has_bounds x 0 255)
                  (=>
                    (in_range4 b)
                    (=>
                      (in_range2 final_block_first)
                      (forall ((temp___733 map1))
                        (=>
                          (and
                            (and
                              (has_bounds temp___733 0 255)
                              (forall ((temp___732 Int))
                                (! (=>
                                     (and
                                       (<= 0 temp___732)
                                       (<= temp___732 255))
                                     (= (to_rep (get temp___733 temp___732)) #x00)) :pattern (
                                (get
                                  temp___733
                                  temp___732)) )))
                            (= temp___733 (temp_____aggregate_def_729 #x00)))
                          (forall ((x1 map1))
                            (=>
                              (= x1 temp___733)
                              (forall ((h1 map1))
                                (=>
                                  (has_bounds h1 0 63)
                                  (let ((o (length m)))
                                    (=>
                                      (in_range3 o)
                                      (let ((o1 (mod1 o 128)))
                                        (=>
                                          (in_range4 o1)
                                          (forall ((b1 Int))
                                            (=>
                                              (= b1 o1)
                                              (forall ((spark__branch Bool))
                                                (=>
                                                  (= spark__branch (ite (< 0 b1)
                                                                    true
                                                                    false))
                                                  (=>
                                                    (= spark__branch true)
                                                    (let ((o2 (- (last m) b1)))
                                                      (=>
                                                        (in_range o2)
                                                        (let ((o3 (+ o2 1)))
                                                          (=>
                                                            (in_range o3)
                                                            (forall ((final_block_first1 Int))
                                                              (=>
                                                                (= final_block_first1 o3)
                                                                (let ((temp___740 
                                                                  (last
                                                                    m)))
                                                                  (=>
                                                                    (<= final_block_first1 temp___740)
                                                                    (<= 
                                                                    (first
                                                                    m) temp___740))))))))))))))))))))))))))))))))))))

(check-sat)
